NAME : amtsp
TYPE : ATSP
DIMENSION : 10
EDGE_WEIGHT_TYPE : EXPLICIT
EDGE_WEIGHT_FORMAT : FULL_MATRIX
EDGE_WEIGHT_SECTION
100000 -100000 100000 100000 100000 100000 100000 100000 100000 100000 
100000 100000 1883 1736 1839 2136 2528 2966 508 -2147483648 
0 0 100000 333 1800 2300 2800 3300 333 471 
0 0 333 100000 333 1800 2300 2800 1271 333 
0 0 1800 333 100000 333 1800 2300 1918 471 
0 0 2300 1800 333 100000 333 1800 2381 1918 
0 0 2800 2300 1800 333 100000 333 2861 2381 
0 0 3300 2800 2300 1800 333 100000 3349 2861 
0 0 333 1271 1918 2381 2861 3349 100000 333 
0 0 471 333 471 1918 2381 2861 333 100000 
